letting n_nurses=25
letting n_days=7
letting n_shift_types=4
letting max_covers=8
letting t_covers=61
letting covers=[2,6,1,0,1,6,2,0,4,7,0,0,6,0,4,0,3,1,8,0,0,3,3,0,2,0,2,0]
letting prefes=[4,1,4,1,1,4,4,1,1,4,1,1,4,4,4,4,4,4,4,4,4,4,4,4,1,4,4,1,1,2,1,2,1,4,4,1,1,4,1,1,4,4,4,4,4,4,4,4,4,4,4,4,1,4,4,1,4,1,4,1,1,4,4,1,1,1,3,1,4,1,4,1,4,4,4,1,4,1,4,1,1,4,4,1,4,1,4,1,1,1,1,1,1,1,1,4,1,4,1,1,4,4,4,1,1,4,1,1,1,1,1,1,4,1,4,1,3,4,4,3,4,1,1,1,4,4,1,1,4,1,4,1,4,4,1,1,3,4,4,3,4,1,4,1,3,4,4,3,4,1,1,1,4,4,4,1,4,4,1,1,4,4,4,1,3,4,4,3,4,1,4,1,1,1,1,1,1,4,1,4,4,4,4,4,4,4,4,4,4,4,4,4,1,1,1,1,4,1,4,1,1,1,1,1,1,1,1,1,1,1,4,1,1,1,4,1,1,1,4,1,1,1,1,1,4,1,4,1,1,4,4,1,1,4,1,1,4,4,4,4,4,4,4,4,4,4,4,4,1,4,4,1,4,1,4,1,1,1,1,1,1,1,1,1,1,4,4,1,4,4,4,1,1,4,4,1,1,1,1,1,4,2,4,2,1,4,4,1,1,1,1,4,4,4,4,1,4,4,1,1,4,4,4,1,1,4,4,1,4,1,4,1,1,4,1,1,4,1,1,1,1,4,4,1,4,1,4,1,1,4,4,1,1,4,1,1,4,2,4,2,1,4,4,1,1,1,1,1,4,4,1,1,4,4,4,1,4,4,1,1,1,4,4,1,1,1,1,1,1,4,4,1,4,1,1,1,4,4,4,1,1,1,1,1,4,4,4,1,1,4,4,1,4,1,4,1,4,4,4,4,1,1,1,1,4,4,4,1,4,4,4,1,4,4,4,1,4,4,4,4,4,1,4,1,1,4,4,1,1,1,3,1,4,4,4,1,4,4,4,1,4,4,4,1,1,4,4,1,1,1,1,1,1,1,4,1,1,4,1,1,4,4,4,4,4,4,4,4,4,4,4,4,1,1,4,1,4,1,4,1,2,4,4,2,1,1,1,1,1,1,1,1,1,4,4,1,1,1,1,1,2,4,4,2,4,1,4,1,1,4,4,1,1,1,3,1,4,4,4,1,4,4,4,1,4,4,4,1,1,4,4,1,4,1,4,1,4,4,4,4,1,1,1,1,4,4,4,1,4,4,1,1,4,4,4,1,4,4,4,4,4,1,4,1,1,4,4,1,1,1,3,1,4,1,1,1,1,4,4,1,4,1,1,1,1,4,4,1,1,1,1,1,1,4,4,1,4,1,1,1,4,1,4,1,1,4,4,1,4,1,4,1,1,4,4,1,1,1,1,1,1,4,4,1,1,1,1,4,4,4,4,1,4,4,4,1,4,4,4,1,1,4,4,1,4,2,4,2,1,4,4,1,1,1,3,4,4,4,4,1,4,4,4,1,4,4,4,1,1,4,4,1,4,2,4,2,1,4,4,1,1,1,1,1,4,4,4,1,4,1,1,1,4,4,4,1,1,4,4,1]
letting ub =  261
